
Gurobi 9.5.1 (linux64) logging started Fri 05 Aug 2022 07:44:57 PM MST

Set parameter LogFile to value "/home/local/ASUAD/kmajd1/NNRepLayer_v2/demos/walking_example/dynamic_constraint/repair_net/logs/opt_log_8_5_2022_19_40_22.log"
Gurobi Optimizer version 9.5.1 build v9.5.1rc2 (linux64)
Thread count: 48 physical cores, 96 logical processors, using up to 40 threads
Optimize a model with 137514 rows, 85903 columns and 2248746 nonzeros
Model fingerprint: 0x4c1ee565
Model has 270 quadratic objective terms
Variable types: 51343 continuous, 34560 integer (34560 binary)
Coefficient statistics:
  Matrix range     [3e-05, 2e+02]
  Objective range  [1e-02, 1e+00]
  QObjective range [7e-02, 7e-02]
  Bounds range     [1e-04, 7e+02]
  RHS range        [2e-05, 2e+02]

Concurrent MIP optimizer: 3 concurrent instances (13 threads per instance)

Presolve removed 1820 rows and 640 columns (presolve time = 5s) ...
Presolve removed 1820 rows and 640 columns (presolve time = 10s) ...
Presolve removed 1820 rows and 640 columns
Presolve time: 10.31s
Presolved: 135694 rows, 85263 columns, 2245674 nonzeros
Presolved model has 270 quadratic objective terms
Variable types: 50703 continuous, 34560 integer (34560 binary)
Root relaxation presolve removed 34560 rows and 34560 columns (presolve time = 5s) ...
Root relaxation presolve removed 34560 rows and 34560 columns (presolve time = 10s) ...
Root relaxation presolve removed 34560 rows and 34560 columns
Root relaxation presolved: 101134 rows, 50703 columns, 2141994 nonzeros
Root relaxation presolved model has 270 quadratic objective terms


Root simplex log...

Iteration    Objective       Primal Inf.    Dual Inf.      Time
       0    2.9758405e+01   0.000000e+00   0.000000e+00     27s
   42143    2.9758405e+01   0.000000e+00   0.000000e+00     30s
   42143    2.9758405e+01   0.000000e+00   0.000000e+00     30s

Root relaxation: objective 2.975840e+01, 42143 iterations, 17.36 seconds (39.03 work units)

    Nodes    |    Current Node    |     Objective Bounds      |     Work
 Expl Unexpl |  Obj  Depth IntInf | Incumbent    BestBd   Gap | It/Node Time

     0     0      -    -    -              -   29.75840      -     -   36s
     0     0      -    -    -              -   29.75840      -     -  135s
     0     2      -    -    -              -   29.75840      -     -  305s
     1     4      -    -    -              -   29.75840      -     -  383s
     3     8      -    -    -              -   29.75840      -     -  478s
     7    16      -    -    -              -   29.75840      -     -  506s
    15    29      -    -    -              -   29.75840      -     -  516s
    41    55      -    -    -              -   29.75840      -     -  520s
    93   107      -    -    -              -   29.75840      -     -  525s
   145   159      -    -    -              -   29.75840      -     -  532s
   171   185      -    -    -              -   29.75840      -     -  540s
   184   204      -    -    -              -   29.75840      -     -  574s
   203   227      -    -    -              -   29.75840      -     -  576s
   226   251      -    -    -              -   29.75840      -     -  580s
   276   302      -    -    -              -   29.75840      -     -  586s
   327   353      -    -    -              -   29.75840      -     -  591s
   377   409      -    -    -              -   29.75840      -     -  597s
   408   441      -    -    -              -   29.75840      -     -  607s
   440   480      -    -    -              -   29.75840      -     -  610s
   479   513      -    -    -              -   29.75840      -     -  622s
   512   551      -    -    -              -   29.75840      -     -  626s
   585   623      -    -    -              -   29.75840      -     -  632s
   622   667      -    -    -              -   29.75840      -     -  636s
